c A SAT instance generated from a 3-CNF formula that had 36 clauses and 12 variables
p cnf 12 36
2 -10 6 0
11 -6 -1 0
-11 -6 8 0
4 -5 -10 0
7 -9 -5 0
-7 8 9 0
7 -4 12 0
-5 -3 -11 0
10 -1 -8 0
-6 11 -3 0
12 -9 11 0
6 -2 3 0
8 -2 -9 0
-6 5 -4 0
-8 -4 12 0
8 11 3 0
-6 10 12 0
11 9 8 0
12 2 -10 0
9 -11 4 0
8 -7 -12 0
8 10 5 0
7 10 2 0
8 10 4 0
-10 12 6 0
6 -9 -4 0
8 -9 -3 0
-4 -7 1 0
8 11 2 0
11 -12 -6 0
-8 -6 3 0
3 6 -9 0
-7 9 -12 0
-5 10 -6 0
3 7 -5 0
10 8 4 0
